Problem:    
Rows:       265
Columns:    150
Non-zeros:  781
Status:     OPTIMAL
Objective:  obj = 4.386923404 (MAXimum)

   No.   Row name   St   Activity     Lower bound   Upper bound    Marginal
------ ------------ -- ------------- ------------- ------------- -------------
     1 r.4          B              0                           0 
     2 r.5          B             -2                           0 
     3 r.6          NU             0                           0      0.221564 
     4 r.7          B              0                           0 
     5 r.8          B             -2                           0 
     6 r.9          B              0                           0 
     7 r.10         B              0                           0 
     8 r.11         NU             0                           0         < eps
     9 r.12         NU             0                           0         < eps
    10 r.13         B              0                           0 
    11 r.14         NU             0                           0      0.124833 
    12 r.15         B              0                           0 
    13 r.16         NU             0                           0         < eps
    14 r.17         B             -2                           0 
    15 r.18         NU             0                           0         < eps
    16 r.19         NU             0                           0         < eps
    17 r.20         B             -2                           0 
    18 r.21         B              0                           0 
    19 r.22         NU             0                           0         < eps
    20 r.23         NU             0                           0         < eps
    21 r.24         B              0                           0 
    22 r.25         B              0                           0 
    23 r.26         B             -2                           0 
    24 r.27         NU             0                           0         < eps
    25 r.28         NU             0                           0      0.250112 
    26 r.29         NU             0                           0      0.250112 
    27 r.30         NU             0                           0     0.0766903 
    28 r.31         NU             0                           0      0.250112 
    29 r.32         NU             0                           0      0.250112 
    30 r.33         B              0                           0 
    31 r.34         B              0                           0 
    32 r.35         B             -2                           0 
    33 r.36         B              0                           0 
    34 r.37         B              0                           0 
    35 r.38         B             -2                           0 
    36 r.39         NU             0                           0         < eps
    37 r.40         B              0                           0 
    38 r.41         B             -2                           0 
    39 r.42         B              0                           0 
    40 r.43         B              0                           0 
    41 r.44         B             -2                           0 
    42 r.45         NU             0                           0      0.298254 
    43 r.46         NU             0                           0         < eps
    44 r.47         NU             0                           0         < eps
    45 r.48         NU             0                           0         < eps
    46 r.49         NU             0                           0         < eps
    47 r.50         NU             0                           0      0.298254 
    48 r.51         NU             0                           0      0.124833 
    49 r.52         NU             0                           0      0.250112 
    50 r.53         NU             0                           0      0.250112 
    51 r.54         NU             0                           0      0.250112 
    52 r.55         B              0                           0 
    53 r.56         B             -2                           0 
    54 r.57         NU             0                           0      0.173421 
    55 r.58         NU             0                           0         < eps
    56 r.59         NU             0                           0         < eps
    57 r.60         NU             0                           0         < eps
    58 r.61         B              0                           0 
    59 r.62         B             -2                           0 
    60 r.63         NU             0                           0      0.173421 
    61 r.64         NU             0                           0         < eps
    62 r.65         NU             0                           0      0.173421 
    63 r.66         B              0                           0 
    64 r.67         NU             0                           0      0.250112 
    65 r.68         NU             0                           0      0.250112 
    66 r.69         NU             0                           0      0.250112 
    67 r.70         NS             0             0             =      0.250112 
    68 r.71         B             -2                           0 
    69 r.72         B              0                           0 
    70 r.73         NU             0                           0         < eps
    71 r.74         NU             0                           0      0.221564 
    72 r.75         B              0                           0 
    73 r.76         B              0                           0 
    74 r.77         B             -2                           0 
    75 r.78         NU             0                           0         < eps
    76 r.79         NU             0                           0         < eps
    77 r.80         NU             0                           0         < eps
    78 r.81         NU             0                           0      0.124833 
    79 r.82         NU             0                           0         < eps
    80 r.83         NU             0                           0      0.298254 
    81 r.84         NU             0                           0      0.124833 
    82 r.85         B              0                           0 
    83 r.86         B             -2                           0 
    84 r.87         NU             0                           0      0.173421 
    85 r.88         B              0                           0 
    86 r.89         B             -2                           0 
    87 r.90         NU             0                           0      0.173421 
    88 r.91         B              0                           0 
    89 r.92         NU             0                           0         < eps
    90 r.93         NU             0                           0         < eps
    91 r.94         NU             0                           0      0.250112 
    92 r.95         NU             0                           0      0.250112 
    93 r.96         NU             0                           0      0.250112 
    94 r.97         NU             0                           0         < eps
    95 r.98         NU             0                           0         < eps
    96 r.99         NU             0                           0         < eps
    97 r.100        B              0                           0 
    98 r.101        B             -2                           0 
    99 r.102        B              0                           0 
   100 r.103        B              0                           0 
   101 r.104        B              0                           0 
   102 r.105        NU             0                           0      0.173421 
   103 r.106        B              0                           0 
   104 r.107        B             -2                           0 
   105 r.108        B              0                           0 
   106 r.109        NU             0                           0         < eps
   107 r.110        NU             0                           0      0.298254 
   108 r.111        NU             0                           0         < eps
   109 r.112        B              0                           0 
   110 r.113        B             -2                           0 
   111 r.114        B              0                           0 
   112 r.115        NU             0                           0         < eps
   113 r.116        NU             0                           0      0.173421 
   114 r.117        B              0                           0 
   115 r.118        B              0                           0 
   116 r.119        NU             0                           0      0.124833 
   117 r.120        NU             0                           0      0.124833 
   118 r.121        B              0                           0 
   119 r.122        B             -2                           0 
   120 r.123        B              0                           0 
   121 r.124        NU             0                           0         < eps
   122 r.125        NU             0                           0      0.221564 
   123 r.126        NU             0                           0      0.144873 
   124 r.127        B              0                           0 
   125 r.128        NU             0                           0         < eps
   126 r.129        NU             0                           0         < eps
   127 r.130        B              0                           0 
   128 r.131        B             -2                           0 
   129 r.132        B              0                           0 
   130 r.133        B              0                           0 
   131 r.134        B             -2                           0 
   132 r.135        NU             0                           0      0.250112 
   133 r.136        NU             0                           0      0.250112 
   134 r.137        NU             0                           0      0.250112 
   135 r.138        NU             0                           0      0.250112 
   136 r.139        B              0                           0 
   137 r.140        B             -2                           0 
   138 r.141        B              0                           0 
   139 r.142        NU             0                           0      0.250112 
   140 r.143        NU             0                           0      0.250112 
   141 r.144        B              0                           0 
   142 r.145        B              0                           0 
   143 r.146        NU             0                           0         < eps
   144 r.147        NU             0                           0     0.0766903 
   145 r.148        NU             0                           0         < eps
   146 r.149        NU             0                           0      0.298254 
   147 r.150        NU             0                           0      0.298254 
   148 r.151        B              0                           0 
   149 r.152        NU             0                           0     0.0766903 
   150 r.153        B              0                           0 
   151 r.154        B              0                           0 
   152 r.155        B             -2                           0 
   153 r.156        NU             0                           0         < eps
   154 r.157        B              0                           0 
   155 r.158        B             -2                           0 
   156 r.159        NU             0                           0         < eps
   157 r.160        B              0                           0 
   158 r.161        NU             0                           0         < eps
   159 r.162        B              0                           0 
   160 r.163        B              0                           0 
   161 r.164        NU             0                           0         < eps
   162 r.165        B              0                           0 
   163 r.166        B              0                           0 
   164 r.167        B             -2                           0 
   165 r.168        B              0                           0 
   166 r.169        B              0             0             = 
   167 r.170        NU             0                           0      0.250112 
   168 r.171        B              0                           0 
   169 r.172        B              0                           0 
   170 r.173        B             -2                           0 
   171 r.174        B              0                           0 
   172 r.175        NU             0                           0         < eps
   173 r.176        B             -2                           0 
   174 r.177        B              0                           0 
   175 r.178        B              0                           0 
   176 r.179        NU             0                           0         < eps
   177 r.180        NU             0                           0         < eps
   178 r.181        B              0                           0 
   179 r.182        B             -2                           0 
   180 r.183        B              0                           0 
   181 r.184        NU             0                           0         < eps
   182 r.185        NS             0             0             =      0.548365 
   183 r.186        NU             0                           0         < eps
   184 r.187        NU             0                           0         < eps
   185 r.188        B             -2                           0 
   186 r.189        B              0                           0 
   187 r.190        NU             0                           0         < eps
   188 r.191        B              0                           0 
   189 r.192        B              0                           0 
   190 r.193        B              0                           0 
   191 r.194        B              0             0             = 
   192 r.195        NU             0                           0         < eps
   193 r.196        B              0                           0 
   194 r.197        B             -2                           0 
   195 r.198        B              0                           0 
   196 r.199        B              0                           0 
   197 r.200        B             -2                           0 
   198 r.201        B              0                           0 
   199 r.202        B              0                           0 
   200 r.203        B             -2                           0 
   201 r.204        B              0                           0 
   202 r.205        NU             0                           0         < eps
   203 r.206        NU             0                           0         < eps
   204 r.207        B              0                           0 
   205 r.208        B              0             0             = 
   206 r.209        B             -2                           0 
   207 r.210        B              0                           0 
   208 r.211        B              0                           0 
   209 r.212        B             -2                           0 
   210 r.213        B              0                           0 
   211 r.214        B              0                           0 
   212 r.215        B             -2                           0 
   213 r.216        NS             0             0             =      0.201523 
   214 r.217        B              0                           0 
   215 r.218        B             -2                           0 
   216 r.219        NU             0                           0     0.0766903 
   217 r.220        B              0                           0 
   218 r.221        B             -2                           0 
   219 r.222        B              0                           0 
   220 r.223        B              0                           0 
   221 r.224        B              0                           0 
   222 r.225        B              0                           0 
   223 r.226        B              0                           0 
   224 r.227        B              0                           0 
   225 r.228        B              0                           0 
   226 r.229        B              0                           0 
   227 r.230        NU             0                           0     0.0766903 
   228 r.231        NU             0                           0     0.0766903 
   229 r.232        B              0                           0 
   230 r.233        NU             0                           0         < eps
   231 r.234        NU             0                           0         < eps
   232 r.235        B              0                           0 
   233 r.236        NU             0                           0         < eps
   234 r.237        B              0             0             = 
   235 r.238        B              0                           0 
   236 r.239        B             -2                           0 
   237 r.240        B              0                           0 
   238 r.241        B              0                           0 
   239 r.242        B              0                           0 
   240 r.243        B              0                           0 
   241 r.244        NS             1             1             =         < eps
   242 r.245        NS             1             1             =      0.250112 
   243 r.246        NS             1             1             =      0.250112 
   244 r.247        NS             1             1             =         < eps
   245 r.248        NS             1             1             =         < eps
   246 r.249        NS             1             1             =      0.298254 
   247 r.250        NS             1             1             =         < eps
   248 r.251        NS             1             1             =      0.250112 
   249 r.252        NS             1             1             =         < eps
   250 r.253        NS             1             1             =         < eps
   251 r.254        NS             1             1             =      0.298254 
   252 r.255        NS             1             1             =      0.221564 
   253 r.256        NS             1             1             =      0.250112 
   254 r.257        NS             1             1             =      0.250112 
   255 r.258        NS             1             1             =         < eps
   256 r.259        NS             1             1             =     0.0766903 
   257 r.260        NS             1             1             =      0.298254 
   258 r.261        NS             1             1             =      0.173421 
   259 r.262        NS             1             1             =      0.250112 
   260 r.263        NS             1             1             =      0.250112 
   261 r.264        NS             1             1             =         < eps
   262 r.265        NS             1             1             =      0.124833 
   263 r.266        NS             1             1             =      0.298254 
   264 r.267        NS             1             1             =      0.298254 
   265 r.268        NS             1             1             =      0.548365 

   No. Column name  St   Activity     Lower bound   Upper bound    Marginal
------ ------------ -- ------------- ------------- ------------- -------------
     1 V(24,1)      B              0                             
     2 V(24,0)      B              8                             
     3 V(24,20)     B              0                             
     4 V(11,1)      B              0                             
     5 F(11,1)      NL             0             0                   -0.221564 
     6 F(11,0)      B              1             0               
     7 F(11,20)     B              0             0               
     8 V(16,1)      B              0                             
     9 V(11,0)      B              3                             
    10 V(16,0)      B              4                             
    11 V(11,20)     B              0                             
    12 V(16,20)     B              0                             
    13 V(10,1)      B              0                             
    14 F(10,1)      NL             0             0                   -0.298254 
    15 F(10,0)      B              1             0               
    16 F(10,20)     B              0             0               
    17 V(10,0)      B              2                             
    18 V(10,20)     B              0                             
    19 V(13,1)      B              0                             
    20 F(13,1)      NL             0             0                       < eps
    21 F(13,0)      B              1             0               
    22 F(13,20)     B              0             0               
    23 V(8,1)       B              0                             
    24 V(13,0)      B              5                             
    25 V(8,0)       B              4                             
    26 V(13,20)     B              0                             
    27 V(8,20)      B              0                             
    28 V(21,1)      B              0                             
    29 F(21,1)      NL             0             0                   -0.124833 
    30 F(21,0)      B              1             0               
    31 F(21,20)     B              0             0               
    32 V(21,0)      B              5                             
    33 V(21,20)     B              0                             
    34 V(5,1)       B              0                             
    35 F(5,1)       NL             0             0                   -0.298254 
    36 F(5,0)       B              1             0               
    37 F(5,20)      B              0             0               
    38 V(6,1)       B              0                             
    39 V(5,0)       B              1                             
    40 V(6,0)       B              2                             
    41 V(5,20)      B              0                             
    42 V(6,20)      B              0                             
    43 F(16,1)      NL             0             0                   -0.298254 
    44 F(16,0)      B              1             0               
    45 F(16,20)     NL             0             0                  -0.0766903 
    46 V(9,1)       B              0                             
    47 F(9,1)       NL             0             0                       < eps
    48 F(9,0)       B              1             0               
    49 F(9,20)      B              0             0               
    50 V(9,0)       B              5                             
    51 V(9,20)      B              0                             
    52 V(14,1)      B              0                             
    53 V(14,0)      B              6                             
    54 V(14,20)     B              0                             
    55 V(18,1)      B              0                             
    56 F(18,1)      B              0             0               
    57 F(18,0)      B              1             0               
    58 F(18,20)     B              0             0               
    59 V(18,0)      B              6                             
    60 V(18,20)     B              0                             
    61 V(2,1)       B              0                             
    62 F(2,1)       B              0             0               
    63 F(2,0)       B              1             0               
    64 F(2,20)      B              0             0               
    65 V(1,1)       B              0                             
    66 V(2,0)       B              2                             
    67 V(1,0)       B              1                             
    68 V(2,20)      B              0                             
    69 V(1,20)      B              0                             
    70 F(8,1)       NL             0             0                       < eps
    71 F(8,0)       B              1             0               
    72 F(8,20)      B              0             0               
    73 V(7,1)       B              0                             
    74 F(7,1)       B              0             0               
    75 F(7,0)       B              1             0               
    76 F(7,20)      B              0             0               
    77 V(12,1)      B              0                             
    78 V(7,0)       B              3                             
    79 V(12,0)      B              4                             
    80 V(7,20)      B              0                             
    81 V(12,20)     B              0                             
    82 V(19,1)      B              0                             
    83 V(19,0)      B              7                             
    84 V(19,20)     B              0                             
    85 V(4,1)       B              0                             
    86 V(4,0)       B              4                             
    87 V(4,20)      B              0                             
    88 V(23,1)      B              0                             
    89 F(23,1)      NL             0             0                   -0.298254 
    90 F(23,0)      B              1             0               
    91 F(23,20)     B              0             0               
    92 V(22,1)      B              0                             
    93 V(23,0)      B              7                             
    94 V(22,0)      B              6                             
    95 V(23,20)     B              0                             
    96 V(22,20)     B              0                             
    97 F(24,1)      NL             0             0                   -0.298254 
    98 F(24,0)      B              1             0               
    99 F(24,20)     NL             0             0                   -0.173421 
   100 F(22,1)      NL             0             0                   -0.298254 
   101 F(22,0)      B              1             0               
   102 F(22,20)     B              0             0               
   103 F(14,1)      NL             0             0                       < eps
   104 F(14,0)      B              1             0               
   105 F(14,20)     B              0             0               
   106 V(17,1)      B              0                             
   107 F(17,1)      NL             0             0                   -0.173421 
   108 F(17,0)      B              1             0               
   109 F(17,20)     B              0             0               
   110 V(17,0)      B              5                             
   111 V(17,20)     B              0                             
   112 F(1,1)       NL             0             0                   -0.250112 
   113 F(1,0)       B              1             0               
   114 F(1,20)      NL             0             0                   -0.250112 
   115 F(6,1)       B              0             0               
   116 F(6,0)       B              1             0               
   117 F(6,20)      B              0             0               
   118 V(20,1)      B              0                             
   119 V(20,0)      B              4                             
   120 V(20,20)     B              0                             
   121 F(12,1)      B              0             0               
   122 F(12,0)      B              1             0               
   123 F(12,20)     B              0             0               
   124 F(19,1)      B              0             0               
   125 F(19,0)      B              1             0               
   126 F(19,20)     B              0             0               
   127 V(15,1)      B              0                             
   128 F(15,1)      NL             0             0                  -0.0766903 
   129 F(15,0)      B              1             0               
   130 F(15,20)     B              0             0               
   131 V(15,0)      B              3                             
   132 V(15,20)     B              0                             
   133 V(0,1)       B              0                             
   134 V(0,0)       B              0                             
   135 V(0,20)      B              0                             
   136 V(3,1)       B              0                             
   137 F(3,1)       NL             0             0                       < eps
   138 F(3,0)       B              1             0               
   139 F(3,20)      B              0             0               
   140 V(3,0)       B              3                             
   141 V(3,20)      B              0                             
   142 F(4,1)       NL             0             0                       < eps
   143 F(4,0)       B              1             0               
   144 F(4,20)      B              0             0               
   145 F(0,1)       B              0             0               
   146 F(0,0)       B              1             0               
   147 F(0,20)      B              0             0               
   148 F(20,1)      NL             0             0                       < eps
   149 F(20,0)      B              1             0               
   150 F(20,20)     B              0             0               

Karush-Kuhn-Tucker optimality conditions:

KKT.PE: max.abs.err = 0.00e+00 on row 0
        max.rel.err = 0.00e+00 on row 0
        High quality

KKT.PB: max.abs.err = 0.00e+00 on row 0
        max.rel.err = 0.00e+00 on row 0
        High quality

KKT.DE: max.abs.err = 3.89e-16 on column 26
        max.rel.err = 2.59e-16 on column 26
        High quality

KKT.DB: max.abs.err = 3.89e-16 on column 20
        max.rel.err = 3.89e-16 on column 20
        High quality

End of output
